{"problem": {"name": "simple.erg", "mustbe": "<2.079443"}, "variables": {"": ["", ""]}, "functions": {"P_": {"scope": ["", "", ""], "costs": ["0.693147", "0.693147", "0.693147", "0.693147", "0.693147", "0.693147", "0.693147", "0.693147"]}}}
